language ESSENCE' 1.0
$ loaded file: carseqdata/csplib-instance-55
letting numcars=200
letting numclasses=25
letting numoptions=5
letting optMax=[1, 2, 1, 2, 1]
letting windowSize=[2, 3, 3, 5, 5]
letting numberPerClass=[2, 20, 6, 6, 19, 11, 6, 4, 6, 8, 2, 6, 1, 3, 5, 43, 8, 14, 1, 2, 6, 2, 15, 1, 3]
letting optionsRequired=[[1, 1, 0, 0, 1], [0, 0, 0, 1, 0], [0, 1, 0, 0, 1], [1, 0, 0, 0, 1], [1, 0, 0, 0, 0], [1, 1, 0, 0, 0], [0, 0, 1, 1, 0], [0, 0, 0, 1, 1], [1, 0, 0, 1, 0], [0, 1, 1, 0, 0], [0, 0, 1, 1, 1], [1, 1, 1, 0, 0], [0, 1, 1, 1, 1], [0, 1, 1, 1, 0], [1, 0, 1, 1, 0], [0, 1, 0, 0, 0], [0, 0, 0, 0, 1], [0, 1, 0, 1, 0], [1, 0, 1, 0, 0], [1, 1, 1, 0, 1], [1, 1, 0, 1, 0], [0, 1, 0, 1, 1], [0, 0, 1, 0, 0], [1, 1, 1, 0, 0], [0, 0, 1, 0, 1]]
